r = [
0,14,43,22,50,47,50,42,32,51,5,0
];
p = [
0,2,12,12,4,9,14,2,13,11,28,0
];
e = [
0,9,12,10,19,8,6,5,3,18,18,0
];
d = [
0,101,129,53,82,88,144,63,45,142,95,157
];
d_bar = [
0,103,140,64,86,96,157,65,57,152,120,157
];
w = [
0,4.5,1.090909091,0.909090909,4.75,1,0.461538462,2.5,0.25,1.8,0.72,0
];
